NAME : ct_6_n_3_k10_t_60
COMMENT : (ct_6_n_3_k10_t_60, Min no of trucks: 3, Optimal value: 69.2618797117872, Split: Yes)
TYPE : SDVRP
DIMENSION : 7
EDGE_WEIGHT_TYPE : EUC_2D
CAPACITY : 10
NODE_COORD_SECTION
1 0 0
2 2 4
3 8 1
4 -1 -10
5 -5 -6
6 -7 5
7 10 -6
DEMAND_SECTION
1 0
2 3.0
3 3.8
4 2.3
5 2.0
6 2.8
7 4.1
DEPOT_SECTION
 1
EOF